(set-logic QF_S)
(declare-fun var_0xINPUT_156330 () String)
(assert (and (= (len var_0xINPUT_156330) 0) (= (len var_0xINPUT_156330) 0) (not (= var_0xINPUT_156330 "Example:")) (not (= var_0xINPUT_156330 "CQALcCP5TB"))))
(check-sat var_0xINPUT_156330)